NAME: Tnm58
COMMENT: Recalculated optimal tour for Tnm58, using concorde got a tour of length 660687.0
TYPE: TOUR
DIMENSION: 58
TOUR_SECTION
1
39
36
33
30
27
24
21
47
50
53
56
58
57
55
52
49
46
18
15
12
9
6
3
38
35
40
43
32
29
26
23
20
17
14
11
8
5
2
37
42
34
31
45
48
51
54
28
25
22
19
16
13
10
7
4
44
41
-1
EOF
